p cnf 55 113
c x0 -> 24
c x1 -> 22
c x2 -> 16
c x3 -> 36
c x4 -> 37
2 3 -1 0
-2 -3 -1 0
2 -3 1 0
-2 3 1 0
4 2 0
-4 -2 0
5 3 0
-5 -3 0
6 -4 0
7 -4 0
-6 -7 4 0
8 -5 0
9 -5 0
-8 -9 5 0
10 6 0
-10 -6 0
11 7 0
-11 -7 0
12 8 0
-12 -8 0
13 9 0
-13 -9 0
14 -10 0
15 -10 0
-14 -15 10 0
16 -11 0
17 -11 0
-16 -17 11 0
18 -12 0
19 -12 0
-18 -19 12 0
16 -13 0
21 -13 0
-16 -21 13 0
22 -14 0
23 -14 0
-22 -23 14 0
24 -15 0
25 -15 0
-24 -25 15 0
26 -17 0
27 -17 0
-26 -27 17 0
22 -18 0
29 -18 0
-22 -29 18 0
24 -19 0
31 -19 0
-24 -31 19 0
32 -21 0
33 -21 0
-32 -33 21 0
34 23 0
-34 -23 0
35 25 0
-35 -25 0
36 -26 0
37 -26 0
-36 -37 26 0
38 27 0
-38 -27 0
39 29 0
-39 -29 0
40 31 0
-40 -31 0
36 -32 0
37 -32 0
-36 -37 32 0
43 33 0
-43 -33 0
44 -34 0
45 -34 0
-44 -45 34 0
46 -35 0
47 -35 0
-46 -47 35 0
48 -38 0
49 -38 0
-48 -49 38 0
50 -39 0
51 -39 0
-50 -51 39 0
52 -40 0
53 -40 0
-52 -53 40 0
54 -43 0
55 -43 0
-54 -55 43 0
36 44 0
-36 -44 0
37 45 0
-37 -45 0
16 46 0
-16 -46 0
26 47 0
-26 -47 0
24 48 0
-24 -48 0
22 49 0
-22 -49 0
36 50 0
-36 -50 0
37 51 0
-37 -51 0
16 52 0
-16 -52 0
32 53 0
-32 -53 0
24 54 0
-24 -54 0
22 55 0
-22 -55 0
1 0
